
<<< setup

Tried aggregator 1 time.
LP Presolve eliminated 106 rows and 74 columns.
Reduced LP has 3 rows, 19 columns, and 19 nonzeros.
Presolve time = 0.00 sec. (0.04 ticks)

Iteration log . . .
Iteration:     1   Dual objective     =          1438.696661
main returns 0

<<< main


<<< done

